webassembly/ejemplos_dzn/7/folder7_json_29.dzn
TERM = { '.', 'in_1', 'local_1', 'in_2', 'in_4', 'in_3', 's(0)', 'in_5', 'in_0'};
null = '.';
s = 7;
n = 11;
ndeps = 3;
max_registers_sz = 4;
NR = 1;
registers = [|'local_1', 'in_0'|];
dependencies = [|'i32.load16_u_1', 'i32.store8_2', |'i32.store8_2', 'call[function_index(0)]_3', |'call[function_index(0)]_3', 'i32.store8_5'|];
GET_ENUM = { GET1, GET2, GET3, GET4, GET5};
SET_ENUM = { SET1, SET2, SET3, SET4, SET5};
TEE_ENUM = { TEE1, TEE2, TEE3, TEE4, TEE5};
N = 4;
OP = { 'call[function_index(0)]_3', 'i32.load16_u_1', 'i32.store8_2', 'i32.store8_5' };
in_ops = [2, 1, 2, 2 ];
out_ops = [0, 1, 0, 0 ];
in1 = ['in_3', 'in_1', 's(0)', 'in_0' ];
in2 = ['in_4', '.', 'in_2', 'in_5' ];
in3 = ['.', '.', '.', '.' ];
out1 = ['.', 's(0)', '.', '.' ];
out2 = ['.', '.', '.', '.' ];
out3 = ['.', '.', '.', '.' ];
comm = [false, false, false, false ];
gas = [1, 1, 1, 1 ];
sz = [1, 1, 1, 1 ];
stor = [true, false, true, true ];
lb = [ 1, 1, 1, 1 ];
ub = [ 7, 7, 7, 7 ];
startstack = [ 'in_0', 'in_1', 'in_2', 'in_3', 'in_4', 'in_5', null, null, null, null, null ];
endstack = [ 'in_0', null, null, null, null, null, null, null, null, null, null ];
